p cnf 6 31
5 3 -1 6 4 2 0
-4 -3 0
-1 -3 4 6 5 2 0
2 3 5 0
1 3 6 5 0
-5 1 4 0
-1 6 3 -4 -2 -5 0
2 -3 0
-2 5 -3 0
1 5 0
-4 -3 1 0
-2 4 0
2 6 3 -4 5 -1 0
5 3 2 4 -1 0
-6 -1 -5 -4 -3 0
5 -2 -3 0
-1 -6 5 -3 4 0
3 6 1 -5 0
-4 -1 0
1 6 0
6 5 -2 0
-4 -3 -6 1 2 0
2 -4 1 6 0
-2 4 6 -3 5 0
-1 5 -6 0
2 -4 -5 1 0
-4 -3 2 -6 -1 0
-1 -6 -5 0
2 -6 3 5 0
-6 -5 1 0
5 -1 0
